p cnf 5 27
4 0
-5 -2 0
3 1 -5 0
1 -5 5 -2 0
5 0
1 -4 -1 0
3 -4 -3 0
5 0
1 -4 -3 0
5 0
-4 -1 -2 0
5 3 -3 0
2 3 0
1 2 3 0
2 -5 4 5 0
4 0
-5 -4 -2 0
3 4 -3 -5 0
4 0
2 -2 0
-5 -4 0
2 4 -1 0
2 -4 0
2 -5 4 -1 0
4 0
1 2 -5 -3 0
2 3 0
